
******************************************************************************
This program contains Ipopt, a library for large-scale nonlinear optimization.
 Ipopt is released as open source code under the Eclipse Public License (EPL).
         For more information visit http://projects.coin-or.org/Ipopt
******************************************************************************

This is Ipopt version 3.12.4, running with linear solver mumps.
NOTE: Other linear solvers might be more efficient (see Ipopt documentation).

Number of nonzeros in equality constraint Jacobian...:        0
Number of nonzeros in inequality constraint Jacobian.:        0
Number of nonzeros in Lagrangian Hessian.............:        0

Total number of variables............................:     9261
                     variables with only lower bounds:        0
                variables with lower and upper bounds:        0
                     variables with only upper bounds:        0
Total number of equality constraints.................:        0
Total number of inequality constraints...............:        0
        inequality constraints with only lower bounds:        0
   inequality constraints with lower and upper bounds:        0
        inequality constraints with only upper bounds:        0

iter    objective    inf_pr   inf_du lg(mu)  ||d||  lg(rg) alpha_du alpha_pr  ls
   0 1.0594713e-001 0.00e+000 1.50e+000   0.0 0.00e+000    -  0.00e+000 0.00e+000   0
   1 4.4373886e-002 0.00e+000 1.14e+000 -11.0 1.50e+000    -  1.00e+000 5.00e-001f  2
   2 2.1337125e-003 0.00e+000 1.07e-001 -11.0 3.25e-001    -  1.00e+000 1.00e+000f  1
   3 1.6948730e-003 0.00e+000 8.90e-002 -11.0 3.34e-002    -  1.00e+000 1.00e+000f  1
   4 2.0868301e-004 0.00e+000 1.92e-002 -11.0 2.44e-001    -  1.00e+000 1.00e+000f  1
   5 1.6058571e-004 0.00e+000 1.65e-002 -11.0 4.56e-002    -  1.00e+000 1.00e+000f  1
   6 1.0543288e-004 0.00e+000 1.11e-002 -11.0 1.34e-001    -  1.00e+000 1.00e+000f  1
   7 8.8026998e-005 0.00e+000 8.21e-003 -11.0 1.33e-001    -  1.00e+000 1.00e+000f  1
   8 7.9686875e-005 0.00e+000 1.33e-002 -11.0 8.99e-002    -  1.00e+000 5.00e-001f  2
   9 7.9667106e-005 0.00e+000 1.47e-002 -11.0 1.61e+001    -  1.00e+000 2.44e-004f 13
iter    objective    inf_pr   inf_du lg(mu)  ||d||  lg(rg) alpha_du alpha_pr  ls
  10 7.8312599e-005 0.00e+000 2.53e-002 -11.0 2.33e+000    -  1.00e+000 3.12e-002f  6
  11 7.8312599e-005 0.00e+000 2.53e-002 -11.0 3.80e+000    -  1.00e+000 1.11e-016f 54
  12 7.8312599e-005 0.00e+000 2.53e-002 -11.0 3.80e+000    -  1.00e+000 3.47e-018f 59
  13 7.8312599e-005 0.00e+000 2.53e-002 -11.0 3.80e+000    -  1.00e+000 3.47e-018f 59
  14 6.9861088e-005 0.00e+000 1.87e-002 -11.0 2.53e-002    -  1.00e+000 5.00e-001f  2
  15 5.5894755e-005 0.00e+000 3.68e-003 -11.0 5.26e-003    -  1.00e+000 1.00e+000f  1
  16 5.5461617e-005 0.00e+000 3.39e-003 -11.0 1.19e-003    -  1.00e+000 1.00e+000f  1
  17 5.0738760e-005 0.00e+000 4.23e-003 -11.0 2.04e-002    -  1.00e+000 1.00e+000f  1
  18 4.5845505e-005 0.00e+000 3.98e-003 -11.0 2.39e-002    -  1.00e+000 1.00e+000f  1
  19 4.5537820e-005 0.00e+000 9.96e-003 -11.0 3.12e-001    -  1.00e+000 6.25e-002f  5
iter    objective    inf_pr   inf_du lg(mu)  ||d||  lg(rg) alpha_du alpha_pr  ls
  20 4.4265860e-005 0.00e+000 1.57e-002 -11.0 3.35e-001    -  1.00e+000 1.25e-001f  4
  21 4.4265860e-005 0.00e+000 1.57e-002 -11.0 3.80e+000    -  1.00e+000 1.78e-015f 50
  22 4.4265860e-005 0.00e+000 1.57e-002 -11.0 3.80e+000    -  1.00e+000 1.39e-017f 57
  23 4.4265860e-005 0.00e+000 1.57e-002 -11.0 3.80e+000    -  1.00e+000 8.88e-016f 51
  24 3.8197919e-005 0.00e+000 8.14e-003 -11.0 1.57e-002    -  1.00e+000 5.00e-001f  2
  25 3.5218240e-005 0.00e+000 1.94e-003 -11.0 2.65e-003    -  1.00e+000 1.00e+000f  1
  26 3.5113170e-005 0.00e+000 1.88e-003 -11.0 6.11e-004    -  1.00e+000 1.00e+000f  1
